NAME : sample1
TYPE : TSP
DIMENSION : 20
EDGE_WEIGHT_TYPE : EUC_2D
NODE_COORD_SECTION
	0	16,04	19,15
	1	6,71	-16,62
	2	3,07	-17,51
	3	3,47	-1,05
	4	-14,23	1,86
	5	4,09	14,7
	6	-2,75	16
	7	7,91	-16,41
	8	-0,33	10,81
	9	18,16	-0,9
	10	5,63	0,12
	11	19,66	5,79
	12	3,84	1,19
	13	-6,4	-7,08
	14	-19,6	6,72
	15	-15,75	-1,72
	16	-8,74	4,12
	17	-17,05	10,54
	18	-12,41	3,75
	19	-5,74	-8,09
EOF